50

100 14 319
97 10 421
97 18 363
95 19 396
93 13 313
87 26 364
87 14 341
86 4 338
82 5 388
82 12 471
78 14 302
76 5 289
76 4 228
75 8 233
74 1 444
71 21 467
68 15 382
66 5 203
65 18 464
63 17 389
59 6 453
59 1 283
58 6 313
58 9 359
57 4 228
52 7 204
51 5 282
46 12 182
46 5 283
46 4 457
43 5 313
42 10 412
42 9 213
41 1 203
41 10 362
41 3 275
38 8 451
37 6 239
36 2 335
36 2 254
32 7 250
32 6 428
31 10 469
30 5 412
27 1 397
25 3 384
22 2 198
22 4 119
22 6 255
21 3 269
